p cnf 91 377
3 4 23 -50 -51 -91 0
4 19 23 -50 -51 68 0
10 11 12 -27 -28 34 0
12 -31 57 -73 78 79 0
-16 -23 67 -68 -89 91 0
1 2 3 24 56 0
1 42 46 -60 -87 0
1 -42 46 60 -87 0
2 -35 59 -61 65 0
3 4 -50 51 -91 0
-4 52 -63 -78 84 0
-8 45 46 48 -55 0
10 11 12 -27 -28 0
10 20 21 22 -69 0
10 -21 69 70 -77 0
-13 -49 -51 68 -91 0
-16 -19 67 -89 91 0
-16 -23 67 -68 -89 0
17 19 23 42 69 0
21 -69 -72 -77 88 0
-22 -41 -53 70 -88 0
29 -30 -31 57 -73 0
-49 -50 51 68 -91 0
12 13 58 78 -79 0
-21 22 70 -72 88 0
-25 26 -27 -28 -34 0
-41 -53 70 72 -88 0
1 -32 56 -62 0
-2 -5 -36 61 0
-3 -16 -19 89 0
-3 -16 -23 89 0
-3 -19 -51 -89 0
4 5 78 -84 0
-5 -6 -35 -65 0
7 9 45 46 0
7 46 -47 -48 0
-7 -8 -42 -83 0
-7 -8 -45 -83 0
-8 -46 47 -64 0
-11 -14 -15 76 0
13 85 -86 91 0
-15 29 57 58 0
-17 22 71 -72 0
20 -38 41 71 0
25 37 -65 74 0
-38 53 -54 71 0
2 3 56 59 0
2 -61 65 -74 0
4 19 51 68 0
4 -61 -78 -84 0
-5 52 -63 -84 0
-8 -18 42 -55 0
-8 -19 -53 -88 0
12 13 58 79 0
12 26 -27 -31 0
-14 -73 -78 79 0
-15 25 76 80 0
-17 -39 -44 71 0
-17 44 -72 -77 0
19 23 38 54 0
-19 -51 67 91 0
-26 28 -31 57 0
29 -30 58 -73 0
-49 -85 90 -91 0
52 78 82 84 0
53 -54 71 -72 0
1 2 6 0
1 3 50 0
-1 8 -70 0
-1 -24 -56 0
-2 37 -74 0
-2 74 82 0
3 23 27 0
3 -68 91 0
-3 -19 -85 0
-3 -23 -85 0
-3 -23 89 0
-3 -66 -89 0
-3 85 -89 0
4 5 63 0
4 16 51 0
4 67 -68 0
4 -74 -82 0
6 -37 63 0
-6 37 62 0
7 40 45 0
-7 -45 -48 0
8 60 83 0
-8 -9 -46 0
-8 -19 -60 0
-8 46 -64 0
9 -43 -87 0
9 -47 55 0
-9 -40 43 0
-10 27 34 0
11 57 -76 0
11 76 -80 0
-12 -78 -79 0
13 49 67 0
13 49 -86 0
13 85 -86 0
-15 -31 -80 0
-16 -49 -50 0
17 -72 77 0
-17 -18 -40 0
18 21 69 0
18 38 64 0
-18 -23 -43 0
-18 -47 -64 0
19 -33 -36 0
19 -65 -75 0
19 74 -76 0
19 -75 -80 0
-19 -27 73 0
-19 -28 -56 0
-19 -38 -54 0
-19 -41 -48 0
-19 -47 54 0
-19 79 80 0
-21 -69 -88 0
22 41 -53 0
23 38 39 0
23 39 41 0
23 74 75 0
-23 26 -28 0
-23 30 36 0
-23 79 84 0
-23 -86 91 0
24 25 59 0
-24 35 -59 0
25 30 33 0
25 34 56 0
26 28 31 0
-26 -32 -33 0
29 33 37 0
-30 -33 -80 0
-35 36 82 0
36 -37 -63 0
-36 37 -63 0
38 -70 72 0
-38 47 -64 0
-39 -40 -43 0
40 41 48 0
40 43 87 0
40 -43 45 0
40 -45 64 0
40 83 -87 0
45 55 64 0
45 -60 83 0
-45 48 -83 0
-46 -47 64 0
-47 51 81 0
49 67 68 0
-49 51 -85 0
50 -86 89 0
-50 66 89 0
-50 -66 89 0
51 -81 -85 0
57 58 -78 0
-58 76 -80 0
-61 -63 78 0
66 -67 -89 0
66 -86 -90 0
-66 -86 89 0
-66 -86 90 0
-66 -86 -90 0
68 -86 90 0
-68 -85 -91 0
-74 -75 76 0
-81 -85 90 0
12 57 58 -73 0
1 2 0
1 8 0
1 24 0
1 -43 0
1 69 0
1 -74 0
-1 24 0
-1 -29 0
-1 30 0
-1 50 0
-1 56 0
-1 -59 0
-1 83 0
-1 84 0
-1 -88 0
2 5 0
2 -5 0
3 25 0
3 35 0
3 42 0
3 -56 0
3 -67 0
3 -88 0
-3 -16 0
-3 49 0
-3 50 0
-3 51 0
-3 -51 0
-3 56 0
-3 -66 0
-3 85 0
4 10 0
4 -52 0
4 -61 0
4 72 0
4 -73 0
4 -82 0
4 85 0
4 89 0
4 -91 0
-4 61 0
-4 -61 0
-4 63 0
-4 -84 0
5 52 0
5 56 0
5 -62 0
5 77 0
5 -78 0
5 -82 0
-5 -9 0
-5 -33 0
-5 35 0
-5 -52 0
-5 63 0
-5 -65 0
-5 74 0
-5 -78 0
6 35 0
6 -62 0
6 -82 0
-6 61 0
-6 74 0
-6 82 0
7 42 0
7 -55 0
7 60 0
7 -87 0
-7 -57 0
-7 -60 0
-7 87 0
8 9 0
8 -10 0
8 39 0
8 64 0
8 70 0
8 -79 0
8 83 0
8 -88 0
-8 9 0
-8 10 0
-8 -10 0
-8 45 0
-8 -45 0
-8 87 0
-9 -43 0
10 57 0
10 -57 0
10 -70 0
10 -72 0
10 -83 0
10 -88 0
10 -90 0
-10 -11 0
-10 15 0
-10 -24 0
-10 28 0
-10 29 0
-10 32 0
-10 -34 0
-10 -36 0
-10 59 0
-10 -70 0
-10 -83 0
-10 90 0
11 14 0
11 15 0
11 -19 0
11 26 0
11 27 0
11 34 0
11 -73 0
-11 -29 0
-11 80 0
12 -14 0
12 15 0
12 26 0
12 34 0
-12 -13 0
-12 31 0
-12 -37 0
-12 -48 0
-12 -57 0
-12 -58 0
-12 73 0
-12 78 0
-12 79 0
13 -28 0
13 -31 0
13 67 0
13 -84 0
13 -90 0
13 91 0
-13 -31 0
-13 81 0
-13 86 0
-13 88 0
-13 -91 0
14 -57 0
14 -58 0
14 73 0
14 79 0
14 -79 0
-14 -76 0
-14 78 0
15 -29 0
15 30 0
15 31 0
15 -57 0
15 -58 0
-15 -76 0
16 50 0
-16 -49 0
-16 86 0
-16 -86 0
17 18 0
17 -22 0
17 40 0
18 41 0
-18 -48 0
-18 -69 0
-18 81 0
19 41 0
19 47 0
19 -50 0
19 56 0
19 -67 0
19 -68 0
-19 -24 0
-19 -25 0
-19 -43 0
-19 -55 0
-19 -58 0
-19 -69 0
-19 -79 0
-19 -81 0
-19 84 0
-19 -84 0
-19 86 0
-19 89 0
-19 -90 0
20 53 0
20 54 0
20 -70 0
20 71 0
20 -77 0
-20 -22 0
-20 69 0
-20 70 0
-20 72 0
-20 77 0
21 60 0
21 70 0
21 -77 0
21 -88 0
-21 -41 0
-21 42 0
-21 -70 0
22 -55 0
22 -69 0
-22 41 0
-22 53 0
-22 -55 0
23 -30 0
23 41 0
23 47 0
